SOLDIER = {SOLDIER1, SOLDIER2, SOLDIER3,
           SOLDIER4, SOLDIER5, SOLDIER6, SOLDIER7, SOLDIER8, SOLDIER9, SOLDIER10}; 
%           SOLDIER7, SOLDIER8, SOLDIER9,
%           SOLDIER10, SOLDIER11, SOLDIER12,
%           SOLDIER13, SOLDIER14, SOLDIER15,
%           SOLDIER16, SOLDIER17, SOLDIER18,
%           SOLDIER19, SOLDIER20, SOLDIER21,
%           SOLDIER22, SOLDIER23, SOLDIER24,
%           SOLDIER25, SOLDIER27, SOLDIER28,
%           SOLDIER29, SOLDIER30, SODLIER31
%           ,SOLDIER32, SOLDIER33, SOLDIER34};
%SHIFT = {EVE, NIGHT};

o = 1;
l = 1;
u = 3;

nDays = 95;